problems/teste.tsp
NAME: ali535
TYPE: TSP
COMMENT: 535 Airports around the globe (Padberg/Rinaldi)
DIMENSION: 4
EDGE_WEIGHT_TYPE: GEO
DISPLAY_DATA_TYPE: COORD_DISPLAY
NODE_COORD_SECTION
1  36.49  7.49
2  57.06  9.51
3  30.22  48.14
4  5.15 -3.56
EOF
