src/teste
NAME: TESTE
TYPE: TSP
COMMENT: 52 locations in Berlin (Groetschel)
DIMENSION: 52
EDGE_WEIGHT_TYPE: EUC_2D
NODE_COORD_SECTION
1 0.0 0.0
2 3.0 4.0
3 5.0 2.0
4 6.0 1.0
5 9.0 3.0
EOF